Minimize
 obj:
Subject To
- 66 x1 + 49 x2 - 81 x3 + 73 x4 + 15 x5 + 56 x6 + 38 x7 - 26 x8 + 74 x9 + 48 x10  <= -11
- 29 x1 + 46 x2 - 48 x3 - 21 x4 + 55 x5 + 68 x6 + 14 x7 + 42 x8 - 84 x9 - 9 x10  <= -78
8 x1 - 22 x2 + 13 x3 + 91 x4 + 73 x5 - 68 x6 - 45 x7 - 48 x8 + 84 x9 - 13 x10  <= 57
- 75 x1 - 84 x2 + 88 x3 - 95 x4 - 70 x5 - 24 x6 - 69 x7 + 5 x8 + 75 x9 - 14 x10  <= -47
- 37 x1 + 53 x2 - 79 x3 + 53 x4 + 40 x5 - 57 x6 + 52 x7 - 18 x8 + 29 x9 + 85 x10  <= 0
37 x1 - 13 x2 + 21 x3 + 14 x4 + 26 x5 - 7 x6 + 26 x7 - 73 x8 + 92 x9 - 71 x10  <= -11
- 35 x1 + 90 x2 - 29 x3 - 20 x4 - 80 x5 + 90 x6 + 96 x7 + 14 x8 + 73 x9 - 70 x10  <= 81
29 x1 - 88 x2 + 90 x3 + 93 x4 + 56 x5 + 60 x6 + 13 x7 - 44 x8 + 92 x9 + 15 x10  <= -13
- 25 x1 + 84 x2 - 95 x3 + 53 x4 + 44 x5 + 17 x6 - 15 x7 + 28 x8 + 49 x9 - 87 x10  <= -90
54 x1 + 40 x2 - 76 x3 - 40 x4 - 86 x5 + 37 x6 - 27 x7 + 45 x8 - 61 x9 - 69 x10  <= -68
66 x1 + 9 x2 - 37 x3 + 5 x4 - 13 x5 - 58 x6 + 45 x7 - 100 x8 + 16 x9 - 5 x10  <= 87
52 x1 - 75 x2 - 98 x3 + 68 x5 + 70 x6 - 82 x7 + 71 x8 + 57 x9 + 15 x10  <= -81
65 x1 + 49 x2 + 81 x3 + 1 x4 + 76 x5 + 92 x6 + 12 x7 - 5 x8 - 17 x9 + 29 x10  <= 75
16 x1 - 56 x2 + 99 x3 - 69 x4 + 38 x5 + 40 x6 + 97 x7 + 29 x8 + 30 x9 + 68 x10  <= 36
93 x1 - 34 x2 + 59 x3 - 68 x4 + 72 x5 + 20 x6 - 16 x7 + 96 x8 + 73 x9 - 7 x10  <= -51
68 x1 + 68 x2 + 47 x3 - 74 x4 - 5 x5 + 56 x6 + 13 x8 - 11 x9 - 93 x10  <= -34
- 15 x1 + 16 x2 - 83 x3 + 34 x4 + 17 x5 - 53 x6 + 48 x7 + 91 x8 + 72 x9 - 86 x10  <= 7
- 24 x1 - 100 x2 + 43 x3 - 90 x4 - 96 x5 + 51 x6 + 25 x7 + 86 x8 + 9 x9 - 17 x10  <= -22
- 61 x1 - 39 x2 - 58 x3 + 21 x4 - 26 x5 - 68 x6 - 8 x7 + 60 x8 - 64 x9 + 43 x10  <= -5
- 72 x1 + 26 x2 - 52 x3 - 76 x4 + 74 x5 - 80 x6 + 50 x7 - 24 x8 + 10 x9 - 85 x10  <= -25
24 x1 + 57 x2 - 16 x3 + 64 x4 + 9 x5 + 45 x6 - 2 x7 - 48 x8 - 2 x10  <= -2
69 x1 + 83 x2 - 28 x3 + 8 x4 + 20 x5 + 21 x6 - 12 x7 + 41 x8 - 57 x9 + 52 x10  <= -39
57 x1 - 82 x2 + 79 x3 + 86 x4 + 93 x5 + 23 x6 - 87 x7 - 78 x8 + 25 x9 - 86 x10  <= 11
- 53 x1 + 22 x2 + 86 x3 + 13 x4 + 14 x5 - 7 x6 - 76 x7 - 53 x8 + 99 x9 + 11 x10  <= 72
- 43 x1 + 45 x2 + 64 x3 - 2 x4 + 18 x5 - 78 x6 - 69 x7 + 39 x8 + 18 x9 + 76 x10  <= -14
- 58 x1 - 64 x2 + 37 x3 - 57 x4 - 47 x5 - 56 x6 - 1 x7 - 47 x8 - 11 x9 - 53 x10  <= -41
29 x1 + 49 x2 + 38 x3 - 15 x4 + 51 x5 - 20 x6 - 25 x7 + 27 x8 + 6 x9 + 79 x10  <= 30
86 x1 - 99 x2 - 66 x3 + 28 x4 + 52 x5 + 34 x6 + 53 x7 + 50 x8 + 79 x9 - 57 x10  <= 26
19 x1 + 24 x2 - 27 x3 - 86 x4 - 50 x5 - 28 x6 - 3 x7 - 42 x9 - 53 x10  <= 32
79 x1 + 33 x2 - 92 x3 + 67 x4 + 13 x5 - 64 x6 - 95 x7 - 5 x8 + 12 x9 - 67 x10  <= 21
Bounds
x1 free
x2 free
x3 free
x4 free
x5 free
x6 free
x7 free
x8 free
x9 free
x10 free
End
